
Gurobi 7.0.0 (linux64, Python) logging started Tue Mar 26 01:01:58 2019

Parameter Threads unchanged
   Value: 0  Min: 0  Max: 1024  Default: 0
Changed value of parameter Crossover to 0
   Prev: -1  Min: -1  Max: 5  Default: -1
Changed value of parameter Method to 2
   Prev: -1  Min: -1  Max: 4  Default: -1
Warning for adding constraints: zero or small (< 1e-13) coefficients, ignored

Gurobi 7.0.0 (linux64, Python) logging started Tue Mar 26 01:06:57 2019

Parameter Threads unchanged
   Value: 0  Min: 0  Max: 1024  Default: 0
Changed value of parameter Crossover to 0
   Prev: -1  Min: -1  Max: 5  Default: -1
Changed value of parameter Method to 2
   Prev: -1  Min: -1  Max: 4  Default: -1
Warning for adding constraints: zero or small (< 1e-13) coefficients, ignored

Gurobi 7.0.0 (linux64, Python) logging started Tue Mar 26 01:28:05 2019

Parameter Threads unchanged
   Value: 0  Min: 0  Max: 1024  Default: 0
Changed value of parameter Crossover to 0
   Prev: -1  Min: -1  Max: 5  Default: -1
Changed value of parameter Method to 2
   Prev: -1  Min: -1  Max: 4  Default: -1
Warning for adding constraints: zero or small (< 1e-13) coefficients, ignored
Optimize a model with 640 rows, 9996 columns and 0 nonzeros
Coefficient statistics:
  Matrix range     [0e+00, 0e+00]
  Objective range  [8e-03, 1e+00]
  Bounds range     [1e+00, 1e+00]
  RHS range        [1e-04, 1e-04]
Presolve removed 640 rows and 9996 columns
Presolve time: 0.00s
Presolve: All rows and columns removed

Barrier solved model in 0 iterations and 0.00 seconds
Optimal objective 5.80469531e+03

Gurobi 7.0.0 (linux64, Python) logging started Tue Mar 26 01:44:47 2019

Parameter Threads unchanged
   Value: 0  Min: 0  Max: 1024  Default: 0
Changed value of parameter Crossover to 0
   Prev: -1  Min: -1  Max: 5  Default: -1
Changed value of parameter Method to 2
   Prev: -1  Min: -1  Max: 4  Default: -1
Warning for adding constraints: zero or small (< 1e-13) coefficients, ignored
Optimize a model with 640 rows, 9996 columns and 6397424 nonzeros
Coefficient statistics:
  Matrix range     [1e-13, 6e-05]
  Objective range  [8e-03, 1e+00]
  Bounds range     [1e+00, 1e+00]
  RHS range        [1e-04, 1e-04]
Presolve removed 320 rows and 0 columns
Presolve time: 1.06s
Presolved: 320 rows, 10316 columns, 3198977 nonzeros
Ordering time: 0.00s

Barrier statistics:
 AA' NZ     : 5.104e+04
 Factor NZ  : 5.136e+04 (roughly 5 MBytes of memory)
 Factor Ops : 1.097e+07 (less than 1 second per iteration)
 Threads    : 4

                  Objective                Residual
Iter       Primal          Dual         Primal    Dual     Compl     Time
   0   5.90426412e+06  2.96146554e+04  8.69e+00 0.00e+00  3.69e+03     1s
   1   4.71210529e+03  2.95822587e+04  2.16e-03 4.37e-11  2.19e+00     1s
   2   3.74925247e+03  8.19043099e+03  3.22e-05 5.09e-11  2.23e-01     1s
   3   5.17923545e+03  5.76173816e+03  1.47e-06 6.91e-11  2.84e-02     1s
   4   5.34479461e+03  5.54522893e+03  3.06e-07 4.37e-11  9.74e-03     1s
   5   5.38313825e+03  5.47898720e+03  1.40e-07 4.73e-11  4.66e-03     2s
   6   5.40139827e+03  5.44913393e+03  7.12e-08 4.39e-11  2.32e-03     2s
   7   5.41491767e+03  5.42943167e+03  2.51e-08 5.46e-11  7.05e-04     2s
   8   5.42004324e+03  5.42511451e+03  8.85e-09 6.18e-11  2.46e-04     2s
   9   5.42215688e+03  5.42385603e+03  2.77e-09 4.37e-11  8.26e-05     2s
  10   5.42278729e+03  5.42348769e+03  1.07e-09 3.64e-11  3.40e-05     2s
  11   5.42306379e+03  5.42336683e+03  3.37e-10 4.73e-11  1.47e-05     2s
  12   5.42316302e+03  5.42326695e+03  8.48e-11 5.46e-11  5.04e-06     2s
  13   5.42319185e+03  5.42322184e+03  1.69e-11 4.00e-11  1.45e-06     2s
  14   5.42319767e+03  5.42320536e+03  4.87e-12 6.55e-11  3.73e-07     2s
  15   5.42319893e+03  5.42320162e+03  2.47e-12 4.73e-11  1.30e-07     2s
  16   5.42320007e+03  5.42320092e+03  4.49e-13 4.37e-11  4.13e-08     2s
  17   5.42320032e+03  5.42320041e+03  1.48e-15 4.73e-11  4.18e-09     2s
  18   5.42320034e+03  5.42320034e+03  5.17e-16 6.55e-11  7.38e-11     2s

Barrier solved model in 18 iterations and 2.08 seconds
Optimal objective 5.42320034e+03


Gurobi 7.0.0 (linux64, Python) logging started Tue Mar 26 01:46:25 2019

Parameter Threads unchanged
   Value: 0  Min: 0  Max: 1024  Default: 0
Changed value of parameter Crossover to 0
   Prev: -1  Min: -1  Max: 5  Default: -1
Changed value of parameter Method to 2
   Prev: -1  Min: -1  Max: 4  Default: -1
Warning for adding constraints: zero or small (< 1e-13) coefficients, ignored
Optimize a model with 640 rows, 9996 columns and 6397424 nonzeros
Coefficient statistics:
  Matrix range     [1e-13, 6e-05]
  Objective range  [8e-03, 1e+00]
  Bounds range     [1e+00, 1e+00]
  RHS range        [1e-04, 1e-04]
Presolve removed 320 rows and 0 columns
Presolve time: 1.06s
Presolved: 320 rows, 10316 columns, 3198977 nonzeros
Ordering time: 0.00s

Barrier statistics:
 AA' NZ     : 5.104e+04
 Factor NZ  : 5.136e+04 (roughly 5 MBytes of memory)
 Factor Ops : 1.097e+07 (less than 1 second per iteration)
 Threads    : 4

                  Objective                Residual
Iter       Primal          Dual         Primal    Dual     Compl     Time
   0   5.90426412e+06  2.96146554e+04  8.69e+00 0.00e+00  3.69e+03     1s
   1   4.71210529e+03  2.95822587e+04  2.16e-03 4.37e-11  2.19e+00     1s
   2   3.74925247e+03  8.19043099e+03  3.22e-05 5.09e-11  2.23e-01     1s
   3   5.17923545e+03  5.76173816e+03  1.47e-06 6.91e-11  2.84e-02     1s
   4   5.34479461e+03  5.54522893e+03  3.06e-07 4.37e-11  9.74e-03     1s
   5   5.38313825e+03  5.47898720e+03  1.40e-07 4.73e-11  4.66e-03     1s
   6   5.40139827e+03  5.44913393e+03  7.12e-08 4.39e-11  2.32e-03     2s
   7   5.41491767e+03  5.42943167e+03  2.51e-08 5.46e-11  7.05e-04     2s
   8   5.42004324e+03  5.42511451e+03  8.85e-09 6.18e-11  2.46e-04     2s
   9   5.42215688e+03  5.42385603e+03  2.77e-09 4.37e-11  8.26e-05     2s
  10   5.42278729e+03  5.42348769e+03  1.07e-09 3.64e-11  3.40e-05     2s
  11   5.42306379e+03  5.42336683e+03  3.37e-10 4.73e-11  1.47e-05     2s
  12   5.42316302e+03  5.42326695e+03  8.48e-11 5.46e-11  5.04e-06     2s
  13   5.42319185e+03  5.42322184e+03  1.69e-11 4.00e-11  1.45e-06     2s
  14   5.42319767e+03  5.42320536e+03  4.87e-12 6.55e-11  3.73e-07     2s
  15   5.42319893e+03  5.42320162e+03  2.47e-12 4.73e-11  1.30e-07     2s
  16   5.42320007e+03  5.42320092e+03  4.49e-13 4.37e-11  4.13e-08     2s
  17   5.42320032e+03  5.42320041e+03  1.48e-15 4.73e-11  4.18e-09     2s
  18   5.42320034e+03  5.42320034e+03  5.17e-16 6.55e-11  7.38e-11     2s

Barrier solved model in 18 iterations and 2.03 seconds
Optimal objective 5.42320034e+03


Gurobi 7.0.0 (linux64, Python) logging started Tue Mar 26 01:50:39 2019

Parameter Threads unchanged
   Value: 0  Min: 0  Max: 1024  Default: 0
Changed value of parameter Crossover to 0
   Prev: -1  Min: -1  Max: 5  Default: -1
Changed value of parameter Method to 2
   Prev: -1  Min: -1  Max: 4  Default: -1
Warning for adding constraints: zero or small (< 1e-13) coefficients, ignored
Optimize a model with 640 rows, 9996 columns and 6397424 nonzeros
Coefficient statistics:
  Matrix range     [1e-13, 6e-05]
  Objective range  [8e-03, 1e+00]
  Bounds range     [1e+00, 1e+00]
  RHS range        [1e-04, 1e-04]
Presolve removed 320 rows and 0 columns
Presolve time: 1.07s
Presolved: 320 rows, 10316 columns, 3198977 nonzeros
Ordering time: 0.00s

Barrier statistics:
 AA' NZ     : 5.104e+04
 Factor NZ  : 5.136e+04 (roughly 5 MBytes of memory)
 Factor Ops : 1.097e+07 (less than 1 second per iteration)
 Threads    : 4

                  Objective                Residual
Iter       Primal          Dual         Primal    Dual     Compl     Time
   0   5.90426412e+06  2.96146554e+04  8.69e+00 0.00e+00  3.69e+03     1s
   1   4.71210529e+03  2.95822587e+04  2.16e-03 4.37e-11  2.19e+00     1s
   2   3.74925247e+03  8.19043099e+03  3.22e-05 5.09e-11  2.23e-01     1s
   3   5.17923545e+03  5.76173816e+03  1.47e-06 6.91e-11  2.84e-02     1s
   4   5.34479461e+03  5.54522893e+03  3.06e-07 4.37e-11  9.74e-03     1s
   5   5.38313825e+03  5.47898720e+03  1.40e-07 4.73e-11  4.66e-03     1s
   6   5.40139827e+03  5.44913393e+03  7.12e-08 4.39e-11  2.32e-03     2s
   7   5.41491767e+03  5.42943167e+03  2.51e-08 5.46e-11  7.05e-04     2s
   8   5.42004324e+03  5.42511451e+03  8.85e-09 6.18e-11  2.46e-04     2s
   9   5.42215688e+03  5.42385603e+03  2.77e-09 4.37e-11  8.26e-05     2s
  10   5.42278729e+03  5.42348769e+03  1.07e-09 3.64e-11  3.40e-05     2s
  11   5.42306379e+03  5.42336683e+03  3.37e-10 4.73e-11  1.47e-05     2s
  12   5.42316302e+03  5.42326695e+03  8.48e-11 5.46e-11  5.04e-06     2s
  13   5.42319185e+03  5.42322184e+03  1.69e-11 4.00e-11  1.45e-06     2s
  14   5.42319767e+03  5.42320536e+03  4.87e-12 6.55e-11  3.73e-07     2s
  15   5.42319893e+03  5.42320162e+03  2.47e-12 4.73e-11  1.30e-07     2s
  16   5.42320007e+03  5.42320092e+03  4.49e-13 4.37e-11  4.13e-08     2s
  17   5.42320032e+03  5.42320041e+03  1.48e-15 4.73e-11  4.18e-09     2s
  18   5.42320034e+03  5.42320034e+03  5.17e-16 6.55e-11  7.38e-11     2s

Barrier solved model in 18 iterations and 2.02 seconds
Optimal objective 5.42320034e+03


Gurobi 7.0.0 (linux64, Python) logging started Tue Mar 26 01:52:40 2019

Parameter Threads unchanged
   Value: 0  Min: 0  Max: 1024  Default: 0
Changed value of parameter Crossover to 0
   Prev: -1  Min: -1  Max: 5  Default: -1
Changed value of parameter Method to 2
   Prev: -1  Min: -1  Max: 4  Default: -1
Warning for adding constraints: zero or small (< 1e-13) coefficients, ignored
Optimize a model with 640 rows, 9996 columns and 6397424 nonzeros
Coefficient statistics:
  Matrix range     [1e-13, 6e-05]
  Objective range  [8e-03, 1e+00]
  Bounds range     [1e+00, 1e+00]
  RHS range        [1e-04, 1e-04]
Presolve removed 320 rows and 0 columns
Presolve time: 1.06s
Presolved: 320 rows, 10316 columns, 3198977 nonzeros
Ordering time: 0.00s

Barrier statistics:
 AA' NZ     : 5.104e+04
 Factor NZ  : 5.136e+04 (roughly 5 MBytes of memory)
 Factor Ops : 1.097e+07 (less than 1 second per iteration)
 Threads    : 4

                  Objective                Residual
Iter       Primal          Dual         Primal    Dual     Compl     Time
   0   5.90426412e+06  2.96146554e+04  8.69e+00 0.00e+00  3.69e+03     1s
   1   4.71210529e+03  2.95822587e+04  2.16e-03 4.37e-11  2.19e+00     1s
   2   3.74925247e+03  8.19043099e+03  3.22e-05 5.09e-11  2.23e-01     1s
   3   5.17923545e+03  5.76173816e+03  1.47e-06 6.91e-11  2.84e-02     1s
   4   5.34479461e+03  5.54522893e+03  3.06e-07 4.37e-11  9.74e-03     1s
   5   5.38313825e+03  5.47898720e+03  1.40e-07 4.73e-11  4.66e-03     1s
   6   5.40139827e+03  5.44913393e+03  7.12e-08 4.39e-11  2.32e-03     2s
   7   5.41491767e+03  5.42943167e+03  2.51e-08 5.46e-11  7.05e-04     2s
   8   5.42004324e+03  5.42511451e+03  8.85e-09 6.18e-11  2.46e-04     2s
   9   5.42215688e+03  5.42385603e+03  2.77e-09 4.37e-11  8.26e-05     2s
  10   5.42278729e+03  5.42348769e+03  1.07e-09 3.64e-11  3.40e-05     2s
  11   5.42306379e+03  5.42336683e+03  3.37e-10 4.73e-11  1.47e-05     2s
  12   5.42316302e+03  5.42326695e+03  8.48e-11 5.46e-11  5.04e-06     2s
  13   5.42319185e+03  5.42322184e+03  1.69e-11 4.00e-11  1.45e-06     2s
  14   5.42319767e+03  5.42320536e+03  4.87e-12 6.55e-11  3.73e-07     2s
  15   5.42319893e+03  5.42320162e+03  2.47e-12 4.73e-11  1.30e-07     2s
  16   5.42320007e+03  5.42320092e+03  4.49e-13 4.37e-11  4.13e-08     2s
  17   5.42320032e+03  5.42320041e+03  1.48e-15 4.73e-11  4.18e-09     2s
  18   5.42320034e+03  5.42320034e+03  5.17e-16 6.55e-11  7.38e-11     2s

Barrier solved model in 18 iterations and 2.02 seconds
Optimal objective 5.42320034e+03


Gurobi 7.0.0 (linux64, Python) logging started Tue Mar 26 02:43:53 2019

Parameter Threads unchanged
   Value: 0  Min: 0  Max: 1024  Default: 0
Changed value of parameter Crossover to 0
   Prev: -1  Min: -1  Max: 5  Default: -1
Changed value of parameter Method to 2
   Prev: -1  Min: -1  Max: 4  Default: -1
Warning for adding constraints: zero or small (< 1e-13) coefficients, ignored
Optimize a model with 640 rows, 9996 columns and 6397424 nonzeros
Coefficient statistics:
  Matrix range     [1e-13, 6e-05]
  Objective range  [8e-03, 1e+00]
  Bounds range     [1e+00, 1e+00]
  RHS range        [1e-04, 1e-04]
Presolve removed 320 rows and 0 columns
Presolve time: 1.06s
Presolved: 320 rows, 10316 columns, 3198977 nonzeros
Ordering time: 0.00s

Barrier statistics:
 AA' NZ     : 5.104e+04
 Factor NZ  : 5.136e+04 (roughly 5 MBytes of memory)
 Factor Ops : 1.097e+07 (less than 1 second per iteration)
 Threads    : 4

                  Objective                Residual
Iter       Primal          Dual         Primal    Dual     Compl     Time
   0   5.90426412e+06  2.96146554e+04  8.69e+00 0.00e+00  3.69e+03     1s
   1   4.71210529e+03  2.95822587e+04  2.16e-03 4.37e-11  2.19e+00     1s
   2   3.74925247e+03  8.19043099e+03  3.22e-05 5.09e-11  2.23e-01     1s
   3   5.17923545e+03  5.76173816e+03  1.47e-06 6.91e-11  2.84e-02     1s
   4   5.34479461e+03  5.54522893e+03  3.06e-07 4.37e-11  9.74e-03     1s
   5   5.38313825e+03  5.47898720e+03  1.40e-07 4.73e-11  4.66e-03     1s
   6   5.40139827e+03  5.44913393e+03  7.12e-08 4.39e-11  2.32e-03     2s
   7   5.41491767e+03  5.42943167e+03  2.51e-08 5.46e-11  7.05e-04     2s
   8   5.42004324e+03  5.42511451e+03  8.85e-09 6.18e-11  2.46e-04     2s
   9   5.42215688e+03  5.42385603e+03  2.77e-09 4.37e-11  8.26e-05     2s
  10   5.42278729e+03  5.42348769e+03  1.07e-09 3.64e-11  3.40e-05     2s
  11   5.42306379e+03  5.42336683e+03  3.37e-10 4.73e-11  1.47e-05     2s
  12   5.42316302e+03  5.42326695e+03  8.48e-11 5.46e-11  5.04e-06     2s
  13   5.42319185e+03  5.42322184e+03  1.69e-11 4.00e-11  1.45e-06     2s
  14   5.42319767e+03  5.42320536e+03  4.87e-12 6.55e-11  3.73e-07     2s
  15   5.42319893e+03  5.42320162e+03  2.47e-12 4.73e-11  1.30e-07     2s
  16   5.42320007e+03  5.42320092e+03  4.49e-13 4.37e-11  4.13e-08     2s
  17   5.42320032e+03  5.42320041e+03  1.48e-15 4.73e-11  4.18e-09     2s
  18   5.42320034e+03  5.42320034e+03  5.17e-16 6.55e-11  7.38e-11     2s

Barrier solved model in 18 iterations and 2.04 seconds
Optimal objective 5.42320034e+03


Gurobi 7.0.0 (linux64, Python) logging started Tue Mar 26 03:13:08 2019

Parameter Threads unchanged
   Value: 0  Min: 0  Max: 1024  Default: 0
Changed value of parameter Crossover to 0
   Prev: -1  Min: -1  Max: 5  Default: -1
Changed value of parameter Method to 2
   Prev: -1  Min: -1  Max: 4  Default: -1
Warning for adding constraints: zero or small (< 1e-13) coefficients, ignored
Optimize a model with 640 rows, 9996 columns and 6397424 nonzeros
Coefficient statistics:
  Matrix range     [1e-13, 6e-05]
  Objective range  [8e-03, 1e+00]
  Bounds range     [1e+00, 1e+00]
  RHS range        [1e-04, 1e-04]
Presolve removed 320 rows and 0 columns
Presolve time: 1.03s
Presolved: 320 rows, 10316 columns, 3198977 nonzeros
Ordering time: 0.00s

Barrier statistics:
 AA' NZ     : 5.104e+04
 Factor NZ  : 5.136e+04 (roughly 5 MBytes of memory)
 Factor Ops : 1.097e+07 (less than 1 second per iteration)
 Threads    : 4

                  Objective                Residual
Iter       Primal          Dual         Primal    Dual     Compl     Time
   0   5.90426412e+06  2.96146554e+04  8.69e+00 0.00e+00  3.69e+03     1s
   1   4.71210529e+03  2.95822587e+04  2.16e-03 4.37e-11  2.19e+00     1s
   2   3.74925247e+03  8.19043099e+03  3.22e-05 5.09e-11  2.23e-01     1s
   3   5.17923545e+03  5.76173816e+03  1.47e-06 6.91e-11  2.84e-02     1s
   4   5.34479461e+03  5.54522893e+03  3.06e-07 4.37e-11  9.74e-03     1s
   5   5.38313825e+03  5.47898720e+03  1.40e-07 4.73e-11  4.66e-03     1s
   6   5.40139827e+03  5.44913393e+03  7.12e-08 4.39e-11  2.32e-03     2s
   7   5.41491767e+03  5.42943167e+03  2.51e-08 5.46e-11  7.05e-04     2s
   8   5.42004324e+03  5.42511451e+03  8.85e-09 6.18e-11  2.46e-04     2s
   9   5.42215688e+03  5.42385603e+03  2.77e-09 4.37e-11  8.26e-05     2s
  10   5.42278729e+03  5.42348769e+03  1.07e-09 3.64e-11  3.40e-05     2s
  11   5.42306379e+03  5.42336683e+03  3.37e-10 4.73e-11  1.47e-05     2s
  12   5.42316302e+03  5.42326695e+03  8.48e-11 5.46e-11  5.04e-06     2s
  13   5.42319185e+03  5.42322184e+03  1.69e-11 4.00e-11  1.45e-06     2s
  14   5.42319767e+03  5.42320536e+03  4.87e-12 6.55e-11  3.73e-07     2s
  15   5.42319893e+03  5.42320162e+03  2.47e-12 4.73e-11  1.30e-07     2s
  16   5.42320007e+03  5.42320092e+03  4.49e-13 4.37e-11  4.13e-08     2s
  17   5.42320032e+03  5.42320041e+03  1.48e-15 4.73e-11  4.18e-09     2s
  18   5.42320034e+03  5.42320034e+03  5.17e-16 6.55e-11  7.38e-11     2s

Barrier solved model in 18 iterations and 2.14 seconds
Optimal objective 5.42320034e+03


Gurobi 7.0.0 (linux64, Python) logging started Tue Mar 26 03:17:27 2019

Parameter Threads unchanged
   Value: 0  Min: 0  Max: 1024  Default: 0
Changed value of parameter Crossover to 0
   Prev: -1  Min: -1  Max: 5  Default: -1
Changed value of parameter Method to 2
   Prev: -1  Min: -1  Max: 4  Default: -1
Warning for adding constraints: zero or small (< 1e-13) coefficients, ignored
Optimize a model with 1280 rows, 39984 columns and 51179360 nonzeros
Coefficient statistics:
  Matrix range     [1e-13, 2e-05]
  Objective range  [8e-03, 1e+00]
  Bounds range     [1e+00, 1e+00]
  RHS range        [1e-04, 1e-04]
Presolve removed 0 rows and 19992 columns (presolve time = 7s) ...
Presolve removed 640 rows and 19992 columns
Presolve time: 7.31s
Presolved: 640 rows, 20632 columns, 12795400 nonzeros
Ordering time: 0.00s

Barrier statistics:
 AA' NZ     : 2.045e+05
 Factor NZ  : 2.051e+05 (roughly 10 MBytes of memory)
 Factor Ops : 8.759e+07 (less than 1 second per iteration)
 Threads    : 4

                  Objective                Residual
Iter       Primal          Dual         Primal    Dual     Compl     Time
   0   4.31003510e+07  7.24810672e+04  1.23e+01 0.00e+00  7.37e+03     8s
   1   2.30837954e+04  7.24331296e+04  2.53e-03 8.73e-11  2.93e+00     8s
   2   1.77378889e+04  2.71248255e+04  1.64e-04 1.83e-09  2.96e-01     9s
   3   2.07691839e+04  2.30568683e+04  2.32e-05 2.62e-09  6.35e-02     9s
   4   2.14122690e+04  2.20512875e+04  4.61e-06 2.04e-10  1.66e-02     9s
   5   2.15749363e+04  2.17600735e+04  1.68e-06 2.47e-10  4.82e-03     9s
   6   2.16458506e+04  2.17140338e+04  6.14e-07 3.64e-10  1.77e-03    10s
   7   2.16681830e+04  2.17006649e+04  3.14e-07 4.07e-10  8.45e-04    10s
   8   2.16827485e+04  2.16955893e+04  1.25e-07 2.33e-10  3.34e-04    10s
   9   2.16887871e+04  2.16939720e+04  4.85e-08 2.76e-10  1.34e-04    10s
  10   2.16912447e+04  2.16933288e+04  1.86e-08 2.62e-10  5.39e-05    11s
  11   2.16924760e+04  2.16929938e+04  3.76e-09 2.91e-10  1.32e-05    11s
  12   2.16926484e+04  2.16929086e+04  1.66e-09 3.49e-10  6.61e-06    11s
  13   2.16927125e+04  2.16928529e+04  9.44e-10 2.76e-10  3.57e-06    11s
  14   2.16927805e+04  2.16928295e+04  2.06e-10 1.89e-10  1.22e-06    11s
  15   2.16927934e+04  2.16928125e+04  7.52e-11 4.07e-10  4.75e-07    12s
  16   2.16928002e+04  2.16928048e+04  8.44e-12 2.91e-10  1.13e-07    12s
  17   2.16928010e+04  2.16928039e+04  2.40e-12 2.40e-10  6.92e-08    12s
  18   2.16928014e+04  2.16928014e+04  1.72e-14 2.47e-10  1.24e-09    12s

Barrier solved model in 18 iterations and 12.33 seconds
Optimal objective 2.16928014e+04


Gurobi 7.0.0 (linux64, Python) logging started Tue Mar 26 03:42:41 2019

Parameter Threads unchanged
   Value: 0  Min: 0  Max: 1024  Default: 0
Changed value of parameter Crossover to 0
   Prev: -1  Min: -1  Max: 5  Default: -1
Changed value of parameter Method to 2
   Prev: -1  Min: -1  Max: 4  Default: -1
Warning for adding constraints: zero or small (< 1e-13) coefficients, ignored
Optimize a model with 640 rows, 38945 columns and 24924602 nonzeros
Coefficient statistics:
  Matrix range     [1e-13, 2e-05]
  Objective range  [5e-02, 1e+00]
  Bounds range     [1e+00, 1e+00]
  RHS range        [1e-04, 1e-04]
Presolve removed 320 rows and 0 columns
Presolve time: 4.07s
Presolved: 320 rows, 39265 columns, 12462506 nonzeros
Ordering time: 0.00s

Barrier statistics:
 AA' NZ     : 5.104e+04
 Factor NZ  : 5.136e+04 (roughly 16 MBytes of memory)
 Factor Ops : 1.097e+07 (less than 1 second per iteration)
 Threads    : 4

                  Objective                Residual
Iter       Primal          Dual         Primal    Dual     Compl     Time
   0   9.07149246e+07  4.41849052e+05  3.05e+01 0.00e+00  5.90e+04     5s
   1   1.70388185e+04  4.41659122e+05  1.72e-03 6.98e-10  8.80e+00     5s
   2   1.24339826e+04  6.17542522e+04  2.44e-05 6.98e-10  6.50e-01     5s
   3   1.84974432e+04  2.42553262e+04  2.68e-17 7.57e-10  7.33e-02     5s
   4   2.01287487e+04  2.26287657e+04  3.09e-17 2.33e-10  3.18e-02     6s
   5   2.08215793e+04  2.22501915e+04  3.81e-17 2.18e-10  1.82e-02     6s
   6   2.10925617e+04  2.20466492e+04  2.78e-17 1.60e-10  1.21e-02     6s
   7   2.14475658e+04  2.19374009e+04  3.03e-17 2.18e-10  6.24e-03     6s
   8   2.15887403e+04  2.18373973e+04  3.99e-17 2.04e-10  3.17e-03     7s
   9   2.16577092e+04  2.17987147e+04  3.70e-17 1.89e-10  1.80e-03     7s
  10   2.16932695e+04  2.17795700e+04  2.79e-17 1.89e-10  1.10e-03     7s
  11   2.17083692e+04  2.17685176e+04  3.09e-17 2.04e-10  7.66e-04     7s
  12   2.17320209e+04  2.17596761e+04  4.17e-17 2.62e-10  3.52e-04     7s
  13   2.17443294e+04  2.17556908e+04  3.85e-17 2.18e-10  1.45e-04     7s
  14   2.17496730e+04  2.17546028e+04  3.57e-17 2.33e-10  6.28e-05     8s
  15   2.17520797e+04  2.17542356e+04  2.90e-17 2.04e-10  2.75e-05     8s
  16   2.17529233e+04  2.17540050e+04  2.54e-17 2.18e-10  1.38e-05     8s
  17   2.17534100e+04  2.17538598e+04  3.17e-17 3.20e-10  5.73e-06     8s
  18   2.17536767e+04  2.17537954e+04  6.09e-17 2.04e-10  1.51e-06     8s
  19   2.17537559e+04  2.17537739e+04  4.45e-17 3.49e-10  2.29e-07     8s
  20   2.17537674e+04  2.17537711e+04  1.38e-16 2.76e-10  4.80e-08     9s
  21   2.17537705e+04  2.17537710e+04  2.56e-16 2.04e-10  6.61e-09     9s
  22   2.17537708e+04  2.17537709e+04  5.97e-16 2.91e-10  5.42e-10     9s

Barrier solved model in 22 iterations and 8.91 seconds
Optimal objective 2.17537708e+04


Gurobi 7.0.0 (linux64, Python) logging started Tue Mar 26 04:04:58 2019

Parameter Threads unchanged
   Value: 0  Min: 0  Max: 1024  Default: 0
Changed value of parameter Crossover to 0
   Prev: -1  Min: -1  Max: 5  Default: -1
Changed value of parameter Method to 2
   Prev: -1  Min: -1  Max: 4  Default: -1
Warning for adding constraints: zero or small (< 1e-13) coefficients, ignored
Optimize a model with 3984 rows, 33026 columns and 131573544 nonzeros
Coefficient statistics:
  Matrix range     [1e-13, 2e-05]
  Objective range  [1e+00, 1e+00]
  Bounds range     [1e+00, 1e+00]
  RHS range        [1e-04, 1e-04]
Presolve removed 0 rows and 0 columns (presolve time = 5s) ...
Presolve removed 0 rows and 0 columns (presolve time = 13s) ...
Presolve removed 0 rows and 0 columns (presolve time = 22s) ...
Presolve removed 1992 rows and 0 columns
Presolve time: 24.76s
Presolved: 1992 rows, 35018 columns, 65786636 nonzeros
Ordering time: 0.02s

Barrier statistics:
 AA' NZ     : 1.983e+06
 Factor NZ  : 1.985e+06 (roughly 30 MBytes of memory)
 Factor Ops : 2.637e+09 (roughly 2 seconds per iteration)
 Threads    : 4

                  Objective                Residual
Iter       Primal          Dual         Primal    Dual     Compl     Time
   0   7.09689468e+07  5.00852352e+04  2.84e+01 0.00e+00  3.69e+03    36s
   1   5.07924169e+02  5.00660080e+04  2.43e-04 4.37e-11  7.48e-01    39s
   2   3.28864739e+03  3.67649926e+04  4.74e-05 8.73e-11  4.85e-01    44s
   3   1.21041537e+04  2.55500051e+04  8.56e-06 3.20e-10  1.93e-01    48s
   4   1.58105641e+04  2.04916794e+04  1.64e-06 4.66e-10  6.70e-02    52s
   5   1.69223356e+04  1.81287471e+04  2.92e-07 8.29e-10  1.73e-02    56s
   6   1.72824468e+04  1.75967563e+04  6.62e-08 8.15e-10  4.49e-03    60s
   7   1.74163575e+04  1.75070960e+04  1.23e-08 9.90e-10  1.30e-03    65s
   8   1.74534444e+04  1.74697731e+04  1.77e-09 1.08e-09  2.33e-04    69s
   9   1.74615901e+04  1.74638110e+04  1.75e-10 7.79e-10  3.17e-05    74s
  10   1.74627779e+04  1.74631119e+04  1.36e-11 1.11e-09  4.77e-06    79s
  11   1.74628770e+04  1.74629720e+04  4.75e-12 8.15e-10  1.36e-06    83s
  12   1.74629281e+04  1.74629510e+04  8.03e-13 9.90e-10  3.26e-07    87s
  13   1.74629393e+04  1.74629404e+04  3.22e-15 9.31e-10  1.54e-08    92s
  14   1.74629398e+04  1.74629399e+04  6.72e-15 1.46e-09  6.38e-10    96s

Barrier solved model in 14 iterations and 95.86 seconds
Optimal objective 1.74629398e+04


Gurobi 7.0.0 (linux64, Python) logging started Tue Mar 26 04:34:37 2019

Parameter Threads unchanged
   Value: 0  Min: 0  Max: 1024  Default: 0
Changed value of parameter Crossover to 0
   Prev: -1  Min: -1  Max: 5  Default: -1
Changed value of parameter Method to 2
   Prev: -1  Min: -1  Max: 4  Default: -1
Warning for adding constraints: zero or small (< 1e-13) coefficients, ignored
Optimize a model with 3984 rows, 33026 columns and 131573544 nonzeros
Coefficient statistics:
  Matrix range     [1e-13, 2e-05]
  Objective range  [1e+00, 1e+00]
  Bounds range     [1e+00, 1e+00]
  RHS range        [1e-04, 1e-04]
Presolve removed 0 rows and 0 columns (presolve time = 5s) ...
Presolve removed 0 rows and 0 columns (presolve time = 13s) ...
Presolve removed 0 rows and 0 columns (presolve time = 21s) ...
Presolve removed 1992 rows and 0 columns
Presolve time: 24.29s
Presolved: 1992 rows, 35018 columns, 65786636 nonzeros
Ordering time: 0.02s

Barrier statistics:
 AA' NZ     : 1.983e+06
 Factor NZ  : 1.985e+06 (roughly 30 MBytes of memory)
 Factor Ops : 2.637e+09 (roughly 2 seconds per iteration)
 Threads    : 4

                  Objective                Residual
Iter       Primal          Dual         Primal    Dual     Compl     Time
   0   7.09689468e+07  5.00852352e+04  2.84e+01 0.00e+00  3.69e+03    33s
   1   5.07924169e+02  5.00660080e+04  2.43e-04 4.37e-11  7.48e-01    37s
   2   3.28864739e+03  3.67649926e+04  4.74e-05 8.73e-11  4.85e-01    41s
   3   1.21041537e+04  2.55500051e+04  8.56e-06 3.20e-10  1.93e-01    45s
   4   1.58105641e+04  2.04916794e+04  1.64e-06 4.66e-10  6.70e-02    49s
   5   1.69223356e+04  1.81287471e+04  2.92e-07 8.29e-10  1.73e-02    53s
   6   1.72824468e+04  1.75967563e+04  6.62e-08 8.15e-10  4.49e-03    57s
   7   1.74163575e+04  1.75070960e+04  1.23e-08 9.90e-10  1.30e-03    62s
   8   1.74534444e+04  1.74697731e+04  1.77e-09 1.08e-09  2.33e-04    66s
   9   1.74615901e+04  1.74638110e+04  1.75e-10 7.79e-10  3.17e-05    71s
  10   1.74627779e+04  1.74631119e+04  1.36e-11 1.11e-09  4.77e-06    75s
  11   1.74628770e+04  1.74629720e+04  4.75e-12 8.15e-10  1.36e-06    79s
  12   1.74629281e+04  1.74629510e+04  8.03e-13 9.90e-10  3.26e-07    83s
  13   1.74629393e+04  1.74629404e+04  3.22e-15 9.31e-10  1.54e-08    88s
  14   1.74629398e+04  1.74629399e+04  6.72e-15 1.46e-09  6.38e-10    92s

Barrier solved model in 14 iterations and 92.17 seconds
Optimal objective 1.74629398e+04


Gurobi 7.0.0 (linux64, Python) logging started Tue Mar 26 05:06:18 2019

Parameter Threads unchanged
   Value: 0  Min: 0  Max: 1024  Default: 0
Changed value of parameter Crossover to 0
   Prev: -1  Min: -1  Max: 5  Default: -1
Changed value of parameter Method to 2
   Prev: -1  Min: -1  Max: 4  Default: -1
Warning for adding constraints: zero or small (< 1e-13) coefficients, ignored
Optimize a model with 3984 rows, 33026 columns and 131573544 nonzeros
Coefficient statistics:
  Matrix range     [1e-13, 2e-05]
  Objective range  [1e+00, 1e+00]
  Bounds range     [1e+00, 1e+00]
  RHS range        [1e-04, 1e-04]
Presolve removed 0 rows and 0 columns (presolve time = 5s) ...
Presolve removed 0 rows and 0 columns (presolve time = 13s) ...
Presolve removed 0 rows and 0 columns (presolve time = 21s) ...
Presolve removed 1992 rows and 0 columns
Presolve time: 24.19s
Presolved: 1992 rows, 35018 columns, 65786636 nonzeros
Ordering time: 0.02s

Barrier statistics:
 AA' NZ     : 1.983e+06
 Factor NZ  : 1.985e+06 (roughly 30 MBytes of memory)
 Factor Ops : 2.637e+09 (roughly 2 seconds per iteration)
 Threads    : 4

                  Objective                Residual
Iter       Primal          Dual         Primal    Dual     Compl     Time
   0   7.09689468e+07  5.00852352e+04  2.84e+01 0.00e+00  3.69e+03    33s
   1   5.07924169e+02  5.00660080e+04  2.43e-04 4.37e-11  7.48e-01    37s
   2   3.28864739e+03  3.67649926e+04  4.74e-05 8.73e-11  4.85e-01    40s
   3   1.21041537e+04  2.55500051e+04  8.56e-06 3.20e-10  1.93e-01    44s
   4   1.58105641e+04  2.04916794e+04  1.64e-06 4.66e-10  6.70e-02    49s
   5   1.69223356e+04  1.81287471e+04  2.92e-07 8.29e-10  1.73e-02    53s
   6   1.72824468e+04  1.75967563e+04  6.62e-08 8.15e-10  4.49e-03    57s
   7   1.74163575e+04  1.75070960e+04  1.23e-08 9.90e-10  1.30e-03    61s
   8   1.74534444e+04  1.74697731e+04  1.77e-09 1.08e-09  2.33e-04    66s
   9   1.74615901e+04  1.74638110e+04  1.75e-10 7.79e-10  3.17e-05    70s
  10   1.74627779e+04  1.74631119e+04  1.36e-11 1.11e-09  4.77e-06    74s
  11   1.74628770e+04  1.74629720e+04  4.75e-12 8.15e-10  1.36e-06    78s
  12   1.74629281e+04  1.74629510e+04  8.03e-13 9.90e-10  3.26e-07    82s
  13   1.74629393e+04  1.74629404e+04  3.22e-15 9.31e-10  1.54e-08    87s
  14   1.74629398e+04  1.74629399e+04  6.72e-15 1.46e-09  6.38e-10    91s

Barrier solved model in 14 iterations and 91.19 seconds
Optimal objective 1.74629398e+04


Gurobi 7.0.0 (linux64, Python) logging started Tue Mar 26 12:02:53 2019

Parameter Threads unchanged
   Value: 0  Min: 0  Max: 1024  Default: 0
Changed value of parameter Crossover to 0
   Prev: -1  Min: -1  Max: 5  Default: -1
Changed value of parameter Method to 2
   Prev: -1  Min: -1  Max: 4  Default: -1
Warning for adding constraints: zero or small (< 1e-13) coefficients, ignored
Optimize a model with 3984 rows, 33026 columns and 131573412 nonzeros
Coefficient statistics:
  Matrix range     [1e-13, 2e-05]
  Objective range  [1e+00, 1e+00]
  Bounds range     [1e+00, 1e+00]
  RHS range        [1e-04, 1e-04]
Presolve removed 0 rows and 0 columns (presolve time = 5s) ...
Presolve removed 0 rows and 0 columns (presolve time = 13s) ...
Presolve removed 0 rows and 0 columns (presolve time = 21s) ...
Presolve removed 1992 rows and 0 columns
Presolve time: 24.24s
Presolved: 1992 rows, 35018 columns, 65786465 nonzeros
Ordering time: 0.02s

Barrier statistics:
 AA' NZ     : 1.983e+06
 Factor NZ  : 1.985e+06 (roughly 30 MBytes of memory)
 Factor Ops : 2.637e+09 (roughly 2 seconds per iteration)
 Threads    : 4

                  Objective                Residual
Iter       Primal          Dual         Primal    Dual     Compl     Time
   0   7.09689630e+07  5.00754339e+04  2.87e+01 0.00e+00  3.69e+03    33s
   1   5.35780257e+02  5.00562086e+04  2.57e-04 4.37e-11  7.49e-01    36s
   2   3.45641156e+03  3.81233513e+04  3.99e-05 8.00e-11  5.01e-01    40s
   3   1.24421879e+04  2.37260135e+04  6.33e-06 2.69e-10  1.62e-01    44s
   4   1.58267514e+04  2.03352767e+04  1.62e-06 5.97e-10  6.46e-02    48s
   5   1.70026828e+04  1.83233339e+04  1.81e-07 5.53e-10  1.89e-02    52s
   6   1.72915372e+04  1.76410233e+04  5.37e-08 8.44e-10  4.99e-03    56s
   7   1.74506220e+04  1.75110152e+04  5.83e-09 9.90e-10  8.63e-04    61s
   8   1.74761122e+04  1.74904881e+04  1.45e-09 7.79e-10  2.05e-04    65s
   9   1.74840210e+04  1.74873210e+04  3.12e-10 9.02e-10  4.71e-05    69s
  10   1.74857347e+04  1.74868297e+04  1.00e-10 7.86e-10  1.56e-05    74s
  11   1.74865025e+04  1.74866674e+04  1.33e-11 1.34e-09  2.36e-06    78s
  12   1.74866267e+04  1.74866502e+04  8.43e-13 9.24e-10  3.36e-07    82s
  13   1.74866367e+04  1.74866387e+04  6.87e-14 9.60e-10  2.82e-08    87s
  14   1.74866378e+04  1.74866380e+04  9.50e-15 1.14e-09  3.33e-09    91s
  15   1.74866379e+04  1.74866379e+04  2.84e-14 1.14e-09  1.54e-10    95s

Barrier solved model in 15 iterations and 94.78 seconds
Optimal objective 1.74866379e+04


Gurobi 7.0.0 (linux64, Python) logging started Tue Mar 26 12:48:08 2019

Parameter Threads unchanged
   Value: 0  Min: 0  Max: 1024  Default: 0
Changed value of parameter Crossover to 0
   Prev: -1  Min: -1  Max: 5  Default: -1
Changed value of parameter Method to 2
   Prev: -1  Min: -1  Max: 4  Default: -1

Gurobi 7.0.0 (linux64, Python) logging started Tue Mar 26 12:49:11 2019

Parameter Threads unchanged
   Value: 0  Min: 0  Max: 1024  Default: 0
Changed value of parameter Crossover to 0
   Prev: -1  Min: -1  Max: 5  Default: -1
Changed value of parameter Method to 2
   Prev: -1  Min: -1  Max: 4  Default: -1

Gurobi 7.0.0 (linux64, Python) logging started Tue Mar 26 12:50:42 2019

Parameter Threads unchanged
   Value: 0  Min: 0  Max: 1024  Default: 0
Changed value of parameter Crossover to 0
   Prev: -1  Min: -1  Max: 5  Default: -1
Changed value of parameter Method to 2
   Prev: -1  Min: -1  Max: 4  Default: -1

Gurobi 7.0.0 (linux64, Python) logging started Tue Mar 26 14:02:40 2019

Parameter Threads unchanged
   Value: 0  Min: 0  Max: 1024  Default: 0
Changed value of parameter Crossover to 0
   Prev: -1  Min: -1  Max: 5  Default: -1
Changed value of parameter Method to 2
   Prev: -1  Min: -1  Max: 4  Default: -1

Gurobi 7.0.0 (linux64, Python) logging started Tue Mar 26 14:03:22 2019

Parameter Threads unchanged
   Value: 0  Min: 0  Max: 1024  Default: 0
Changed value of parameter Crossover to 0
   Prev: -1  Min: -1  Max: 5  Default: -1
Changed value of parameter Method to 2
   Prev: -1  Min: -1  Max: 4  Default: -1
Warning for adding constraints: zero or small (< 1e-13) coefficients, ignored
Optimize a model with 640 rows, 9996 columns and 6397428 nonzeros
Coefficient statistics:
  Matrix range     [1e-13, 6e-05]
  Objective range  [8e-03, 1e+00]
  Bounds range     [1e+00, 1e+00]
  RHS range        [1e-04, 1e-04]
Presolve removed 320 rows and 0 columns
Presolve time: 1.04s
Presolved: 320 rows, 10316 columns, 3198979 nonzeros
Ordering time: 0.00s

Barrier statistics:
 AA' NZ     : 5.104e+04
 Factor NZ  : 5.136e+04 (roughly 5 MBytes of memory)
 Factor Ops : 1.097e+07 (less than 1 second per iteration)
 Threads    : 4

                  Objective                Residual
Iter       Primal          Dual         Primal    Dual     Compl     Time
   0   5.91409739e+06  2.95731030e+04  6.87e+00 0.00e+00  3.69e+03     1s
   1   4.62314473e+03  2.95407795e+04  1.59e-03 3.64e-11  2.13e+00     1s
   2   3.74948048e+03  7.91937097e+03  1.24e-05 1.41e-09  2.06e-01     1s
   3   5.18507422e+03  5.75511705e+03  6.95e-07 1.38e-10  2.77e-02     1s
   4   5.34876558e+03  5.54524643e+03  1.49e-07 9.46e-11  9.54e-03     1s
   5   5.38409339e+03  5.47837837e+03  7.26e-08 4.00e-11  4.58e-03     1s
   6   5.40482232e+03  5.45058985e+03  3.58e-08 4.37e-11  2.22e-03     1s
   7   5.41817874e+03  5.43360519e+03  1.35e-08 4.00e-11  7.49e-04     2s
   8   5.42418333e+03  5.43005420e+03  4.48e-09 5.46e-11  2.85e-04     2s
   9   5.42668022e+03  5.42828457e+03  9.92e-10 4.37e-11  7.79e-05     2s
  10   5.42720268e+03  5.42776189e+03  3.23e-10 5.09e-11  2.71e-05     2s
  11   5.42736310e+03  5.42759030e+03  1.35e-10 5.09e-11  1.10e-05     2s
  12   5.42744637e+03  5.42750679e+03  4.03e-11 5.82e-11  2.93e-06     2s
  13   5.42746863e+03  5.42748843e+03  1.65e-11 4.73e-11  9.62e-07     2s
  14   5.42748292e+03  5.42748598e+03  1.59e-12 5.09e-11  1.48e-07     2s
  15   5.42748344e+03  5.42748541e+03  1.07e-12 4.73e-11  9.55e-08     2s
  16   5.42748428e+03  5.42748496e+03  2.26e-13 4.37e-11  3.29e-08     2s
  17   5.42748452e+03  5.42748456e+03  3.43e-16 5.46e-11  1.94e-09     2s

Barrier solved model in 17 iterations and 1.96 seconds
Optimal objective 5.42748452e+03


Gurobi 7.0.0 (linux64, Python) logging started Tue Mar 26 14:05:29 2019

Parameter Threads unchanged
   Value: 0  Min: 0  Max: 1024  Default: 0
Changed value of parameter Crossover to 0
   Prev: -1  Min: -1  Max: 5  Default: -1
Changed value of parameter Method to 2
   Prev: -1  Min: -1  Max: 4  Default: -1
Warning for adding constraints: zero or small (< 1e-13) coefficients, ignored
Optimize a model with 640 rows, 9996 columns and 6397428 nonzeros
Coefficient statistics:
  Matrix range     [1e-13, 6e-05]
  Objective range  [8e-03, 1e+00]
  Bounds range     [1e+00, 1e+00]
  RHS range        [1e-04, 1e-04]
Presolve removed 320 rows and 0 columns
Presolve time: 1.07s
Presolved: 320 rows, 10316 columns, 3198979 nonzeros
Ordering time: 0.00s

Barrier statistics:
 AA' NZ     : 5.104e+04
 Factor NZ  : 5.136e+04 (roughly 5 MBytes of memory)
 Factor Ops : 1.097e+07 (less than 1 second per iteration)
 Threads    : 4

                  Objective                Residual
Iter       Primal          Dual         Primal    Dual     Compl     Time
   0   5.91409739e+06  2.95731030e+04  6.87e+00 0.00e+00  3.69e+03     1s
   1   4.62314473e+03  2.95407795e+04  1.59e-03 3.64e-11  2.13e+00     1s
   2   3.74948048e+03  7.91937097e+03  1.24e-05 1.41e-09  2.06e-01     1s
   3   5.18507422e+03  5.75511705e+03  6.95e-07 1.38e-10  2.77e-02     1s
   4   5.34876558e+03  5.54524643e+03  1.49e-07 9.46e-11  9.54e-03     1s
   5   5.38409339e+03  5.47837837e+03  7.26e-08 4.00e-11  4.58e-03     1s
   6   5.40482232e+03  5.45058985e+03  3.58e-08 4.37e-11  2.22e-03     2s
   7   5.41817874e+03  5.43360519e+03  1.35e-08 4.00e-11  7.49e-04     2s
   8   5.42418333e+03  5.43005420e+03  4.48e-09 5.46e-11  2.85e-04     2s
   9   5.42668022e+03  5.42828457e+03  9.92e-10 4.37e-11  7.79e-05     2s
  10   5.42720268e+03  5.42776189e+03  3.23e-10 5.09e-11  2.71e-05     2s
  11   5.42736310e+03  5.42759030e+03  1.35e-10 5.09e-11  1.10e-05     2s
  12   5.42744637e+03  5.42750679e+03  4.03e-11 5.82e-11  2.93e-06     2s
  13   5.42746863e+03  5.42748843e+03  1.65e-11 4.73e-11  9.62e-07     2s
  14   5.42748292e+03  5.42748598e+03  1.59e-12 5.09e-11  1.48e-07     2s
  15   5.42748344e+03  5.42748541e+03  1.07e-12 4.73e-11  9.55e-08     2s
  16   5.42748428e+03  5.42748496e+03  2.26e-13 4.37e-11  3.29e-08     2s
  17   5.42748452e+03  5.42748456e+03  3.43e-16 5.46e-11  1.94e-09     2s

Barrier solved model in 17 iterations and 1.99 seconds
Optimal objective 5.42748452e+03

